73
150
120	1
117	2
116	1
115	1
114	1
111	1
109	1
108	1
107	1
106	1
105	2
103	4
102	2
101	1
98	2
97	1
95	1
94	2
93	1
92	2
88	1
87	1
85	3
84	1
83	1
82	1
80	1
79	1
75	2
74	1
73	2
71	1
67	1
66	3
65	1
64	2
62	1
61	1
60	2
57	1
56	1
54	3
53	1
52	1
51	2
50	1
49	2
47	1
44	1
43	1
42	1
41	2
40	1
38	1
37	2
36	2
34	1
33	1
32	1
31	1
30	1
28	2
27	1
25	1
24	1
23	1
22	1
21	1
20	1
18	1
17	1
16	2
15	2
